res/heu/pdp_100_mem_1.0/1.0_1.0/lrc106.txt
Vehicle 0
0 51 104 35 46 42 27 80 99 95 88 107 

Vehicle 1
0 8 6 48 32 101 85 59 61 107 

Vehicle 2
0 22 23 75 76 19 21 74 72 20 73 107 

Vehicle 3
0 50 34 87 49 102 103 29 82 107 

Vehicle 5
0 39 52 105 28 7 60 81 5 92 58 107 

Vehicle 6
0 2 24 55 4 57 3 25 77 78 1 54 56 107 

Vehicle 7
0 9 62 26 79 41 94 33 30 83 86 107 

Vehicle 8
0 17 16 69 14 67 13 66 70 107 

Vehicle 9
0 37 45 36 89 90 98 10 63 12 65 107 

Vehicle 10
0 44 97 53 47 31 84 106 100 11 64 107 

Vehicle 14
0 40 93 38 15 91 18 71 68 43 96 107 

Vehicle used: 11
Total Distance Traveled: 1425.528598576434
Total Penalty of Delay: 0.0
Time Elasped: 6136
Vehicle 0 with capacity 200
			Node 0
		Load 0.0
		Time 0.0
		Delay 0.0
			Membership 1
			Time Window [0, 240]
			Load at node 0
			Service time at node 0
			Location (40, 50)
	Distance between 20.615528128088304
			Node 51
		Load 6.0
		Time 20.615528128088304
		Delay 0.0
			Membership 1
			Time Window [20, 80]
			Load at node 6
			Service time at node 10
			Location (56, 37)
	Distance between 9.219544457292887
			Node 104
		Load 0.0
		Time 39.83507258538119
		Delay 0.0
			Membership 1
			Time Window [37, 97]
			Load at node -6
			Service time at node 10
			Location (65, 35)
	Distance between 15.0
			Node 35
		Load 6.0
		Time 64.8350725853812
		Delay 0.0
			Membership 1
			Time Window [39, 99]
			Load at node 6
			Service time at node 10
			Location (65, 20)
	Distance between 3.605551275463989
			Node 46
		Load 8.0
		Time 78.44062386084519
		Delay 0.0
			Membership 1
			Time Window [72, 132]
			Load at node 2
			Service time at node 10
			Location (63, 23)
	Distance between 11.40175425099138
			Node 42
		Load 39.0
		Time 99.84237811183657
		Delay 0.0
			Membership 1
			Time Window [60, 120]
			Load at node 31
			Service time at node 10
			Location (60, 12)
	Distance between 9.433981132056603
			Node 27
		Load 58.0
		Time 119.27635924389317
		Delay 0.0
			Membership 1
			Time Window [68, 128]
			Load at node 19
			Service time at node 0
			Location (55, 20)
	Distance between 0.0
			Node 80
		Load 39.0
		Time 119.27635924389317
		Delay 0.0
			Membership 1
			Time Window [68, 128]
			Load at node -19
			Service time at node 10
			Location (55, 20)
	Distance between 9.219544457292887
			Node 99
		Load 37.0
		Time 138.49590370118608
		Delay 0.0
			Membership 1
			Time Window [81, 141]
			Load at node -2
			Service time at node 10
			Location (57, 29)
	Distance between 9.219544457292887
			Node 95
		Load 6.0
		Time 157.71544815847898
		Delay 0.0
			Membership 1
			Time Window [115, 175]
			Load at node -31
			Service time at node 10
			Location (50, 35)
	Distance between 9.219544457292887
			Node 88
		Load 0.0
		Time 176.93499261577188
		Delay 0.0
			Membership 1
			Time Window [118, 178]
			Load at node -6
			Service time at node 10
			Location (41, 37)
	Distance between 13.038404810405298
			Node 107
		Load 0.0
		Time 199.97339742617717
		Delay 0.0
			Membership 1
			Time Window [0, 240]
			Load at node 0
			Service time at node 0
			Location (40, 50)

Vehicle 1 with capacity 200
			Node 0
		Load 0.0
		Time 0.0
		Delay 0.0
			Membership 1
			Time Window [0, 240]
			Load at node 0
			Service time at node 0
			Location (40, 50)
	Distance between 35.35533905932738
			Node 8
		Load 10.0
		Time 35.35533905932738
		Delay 0.0
			Membership 1
			Time Window [35, 95]
			Load at node 10
			Service time at node 10
			Location (5, 45)
	Distance between 5.830951894845301
			Node 6
		Load 50.0
		Time 51.18629095417268
		Delay 0.0
			Membership 1
			Time Window [44, 104]
			Load at node 40
			Service time at node 10
			Location (8, 40)
	Distance between 16.492422502470642
			Node 48
		Load 63.0
		Time 77.67871345664332
		Delay 0.0
			Membership 1
			Time Window [75, 135]
			Load at node 13
			Service time at node 10
			Location (12, 24)
	Distance between 4.47213595499958
			Node 32
		Load 82.0
		Time 92.1508494116429
		Delay 0.0
			Membership 1
			Time Window [42, 102]
			Load at node 19
			Service time at node 10
			Location (10, 20)
	Distance between 15.811388300841896
			Node 101
		Load 69.0
		Time 117.9622377124848
		Delay 0.0
			Membership 1
			Time Window [59, 119]
			Load at node -13
			Service time at node 10
			Location (5, 5)
	Distance between 13.038404810405298
			Node 85
		Load 50.0
		Time 141.00064252289008
		Delay 0.0
			Membership 1
			Time Window [105, 165]
			Load at node -19
			Service time at node 10
			Location (4, 18)
	Distance between 13.601470508735444
			Node 59
		Load 10.0
		Time 164.60211303162552
		Delay 0.0
			Membership 1
			Time Window [122, 182]
			Load at node -40
			Service time at node 10
			Location (15, 10)
	Distance between 11.180339887498949
			Node 61
		Load 0.0
		Time 185.78245291912447
		Delay 0.0
			Membership 1
			Time Window [126, 186]
			Load at node -10
			Service time at node 10
			Location (20, 20)
	Distance between 36.05551275463989
			Node 107
		Load 0.0
		Time 231.83796567376436
		Delay 0.0
			Membership 1
			Time Window [0, 240]
			Load at node 0
			Service time at node 0
			Location (40, 50)

Vehicle 2 with capacity 200
			Node 0
		Load 0.0
		Time 0.0
		Delay 0.0
			Membership 1
			Time Window [0, 240]
			Load at node 0
			Service time at node 0
			Location (40, 50)
	Distance between 33.54101966249684
			Node 22
		Load 10.0
		Time 33.54101966249684
		Delay 0.0
			Membership 1
			Time Window [33, 93]
			Load at node 10
			Service time at node 10
			Location (55, 80)
	Distance between 2.0
			Node 23
		Load 20.0
		Time 49.0
		Delay 0.0
			Membership 1
			Time Window [49, 109]
			Load at node 10
			Service time at node 10
			Location (55, 82)
	Distance between 5.385164807134504
			Node 75
		Load 10.0
		Time 64.3851648071345
		Delay 0.0
			Membership 1
			Time Window [36, 96]
			Load at node -10
			Service time at node 10
			Location (60, 80)
	Distance between 2.0
			Node 76
		Load 0.0
		Time 76.3851648071345
		Delay 0.0
			Membership 1
			Time Window [60, 120]
			Load at node -10
			Service time at node 10
			Location (62, 80)
	Distance between 5.830951894845301
			Node 19
		Load 40.0
		Time 92.2161167019798
		Delay 0.0
			Membership 1
			Time Window [43, 103]
			Load at node 40
			Service time at node 10
			Location (65, 85)
	Distance between 5.0
			Node 21
		Load 70.0
		Time 107.2161167019798
		Delay 0.0
			Membership 1
			Time Window [70, 130]
			Load at node 30
			Service time at node 10
			Location (60, 85)
	Distance between 10.198039027185569
			Node 74
		Load 40.0
		Time 127.41415572916537
		Delay 0.0
			Membership 1
			Time Window [77, 137]
			Load at node -30
			Service time at node 10
			Location (58, 75)
	Distance between 10.44030650891055
			Node 72
		Load 0.0
		Time 147.85446223807594
		Delay 0.0
			Membership 1
			Time Window [113, 173]
			Load at node -40
			Service time at node 10
			Location (55, 85)
	Distance between 10.44030650891055
			Node 20
		Load 10.0
		Time 168.2947687469865
		Delay 0.0
			Membership 1
			Time Window [109, 169]
			Load at node 10
			Service time at node 10
			Location (65, 82)
	Distance between 3.605551275463989
			Node 73
		Load 0.0
		Time 181.9003200224505
		Delay 0.0
			Membership 1
			Time Window [124, 184]
			Load at node -10
			Service time at node 10
			Location (67, 85)
	Distance between 44.204072210600685
			Node 107
		Load 0.0
		Time 236.1043922330512
		Delay 0.0
			Membership 1
			Time Window [0, 240]
			Load at node 0
			Service time at node 0
			Location (40, 50)

Vehicle 3 with capacity 200
			Node 0
		Load 0.0
		Time 0.0
		Delay 0.0
			Membership 1
			Time Window [0, 240]
			Load at node 0
			Service time at node 0
			Location (40, 50)
	Distance between 14.7648230602334
			Node 50
		Load 14.0
		Time 14.7648230602334
		Delay 0.0
			Membership 1
			Time Window [14, 74]
			Load at node 14
			Service time at node 10
			Location (53, 43)
	Distance between 23.40939982143925
			Node 34
		Load 23.0
		Time 51.0
		Delay 0.0
			Membership 1
			Time Window [51, 111]
			Load at node 9
			Service time at node 10
			Location (45, 65)
	Distance between 8.06225774829855
			Node 87
		Load 14.0
		Time 71.0
		Delay 0.0
			Membership 1
			Time Window [71, 131]
			Load at node -9
			Service time at node 10
			Location (49, 58)
	Distance between 16.278820596099706
			Node 49
		Load 20.0
		Time 97.2788205960997
		Delay 0.0
			Membership 1
			Time Window [71, 131]
			Load at node 6
			Service time at node 10
			Location (37, 47)
	Distance between 20.024984394500787
			Node 102
		Load 14.0
		Time 127.3038049906005
		Delay 0.0
			Membership 1
			Time Window [80, 140]
			Load at node -6
			Service time at node 10
			Location (57, 48)
	Distance between 6.324555320336759
			Node 103
		Load 0.0
		Time 143.62836031093727
		Delay 0.0
			Membership 1
			Time Window [117, 177]
			Load at node -14
			Service time at node 10
			Location (55, 54)
	Distance between 6.0
			Node 29
		Load 16.0
		Time 159.62836031093727
		Delay 0.0
			Membership 1
			Time Window [124, 184]
			Load at node 16
			Service time at node 10
			Location (55, 60)
	Distance between 15.0
			Node 82
		Load 0.0
		Time 184.62836031093727
		Delay 0.0
			Membership 1
			Time Window [129, 189]
			Load at node -16
			Service time at node 10
			Location (40, 60)
	Distance between 10.0
			Node 107
		Load 0.0
		Time 204.62836031093727
		Delay 0.0
			Membership 1
			Time Window [0, 240]
			Load at node 0
			Service time at node 0
			Location (40, 50)

Vehicle 5 with capacity 200
			Node 0
		Load 0.0
		Time 0.0
		Delay 0.0
			Membership 1
			Time Window [0, 240]
			Load at node 0
			Service time at node 0
			Location (40, 50)
	Distance between 9.219544457292887
			Node 39
		Load 27.0
		Time 26.0
		Delay 0.0
			Membership 1
			Time Window [26, 86]
			Load at node 27
			Service time at node 10
			Location (31, 52)
	Distance between 5.0
			Node 52
		Load 36.0
		Time 41.0
		Delay 0.0
			Membership 1
			Time Window [31, 91]
			Load at node 9
			Service time at node 10
			Location (26, 52)
	Distance between 6.324555320336759
			Node 105
		Load 27.0
		Time 57.324555320336756
		Delay 0.0
			Membership 1
			Time Window [52, 112]
			Load at node -9
			Service time at node 10
			Location (24, 58)
	Distance between 8.94427190999916
			Node 28
		Load 32.0
		Time 76.26882723033592
		Delay 0.0
			Membership 1
			Time Window [76, 136]
			Load at node 5
			Service time at node 10
			Location (20, 50)
	Distance between 13.0
			Node 7
		Load 52.0
		Time 99.26882723033592
		Delay 0.0
			Membership 1
			Time Window [49, 109]
			Load at node 20
			Service time at node 0
			Location (8, 45)
	Distance between 0.0
			Node 60
		Load 32.0
		Time 99.26882723033592
		Delay 0.0
			Membership 1
			Time Window [49, 109]
			Load at node -20
			Service time at node 10
			Location (8, 45)
	Distance between 5.385164807134504
			Node 81
		Load 27.0
		Time 114.65399203747042
		Delay 0.0
			Membership 1
			Time Window [104, 164]
			Load at node -5
			Service time at node 10
			Location (10, 40)
	Distance between 5.0
			Node 5
		Load 47.0
		Time 129.6539920374704
		Delay 0.0
			Membership 1
			Time Window [76, 136]
			Load at node 20
			Service time at node 10
			Location (10, 35)
	Distance between 5.0
			Node 92
		Load 20.0
		Time 144.6539920374704
		Delay 0.0
			Membership 1
			Time Window [127, 187]
			Load at node -27
			Service time at node 10
			Location (5, 35)
	Distance between 11.180339887498949
			Node 58
		Load 0.0
		Time 165.83433192496935
		Delay 0.0
			Membership 1
			Time Window [129, 189]
			Load at node -20
			Service time at node 10
			Location (0, 45)
	Distance between 40.311288741492746
			Node 107
		Load 0.0
		Time 216.1456206664621
		Delay 0.0
			Membership 1
			Time Window [0, 240]
			Load at node 0
			Service time at node 0
			Location (40, 50)

Vehicle 6 with capacity 200
			Node 0
		Load 0.0
		Time 0.0
		Delay 0.0
			Membership 1
			Time Window [0, 240]
			Load at node 0
			Service time at node 0
			Location (40, 50)
	Distance between 30.805843601498726
			Node 2
		Load 30.0
		Time 35.0
		Delay 0.0
			Membership 1
			Time Window [35, 95]
			Load at node 30
			Service time at node 10
			Location (22, 75)
	Distance between 7.280109889280518
			Node 24
		Load 40.0
		Time 52.28010988928052
		Delay 0.0
			Membership 1
			Time Window [37, 97]
			Load at node 10
			Service time at node 10
			Location (20, 82)
	Distance between 3.0
			Node 55
		Load 10.0
		Time 65.28010988928051
		Delay 0.0
			Membership 1
			Time Window [40, 100]
			Load at node -30
			Service time at node 10
			Location (20, 85)
	Distance between 7.0710678118654755
			Node 4
		Load 20.0
		Time 82.35117770114599
		Delay 0.0
			Membership 1
			Time Window [76, 136]
			Load at node 10
			Service time at node 10
			Location (15, 80)
	Distance between 5.0
			Node 57
		Load 10.0
		Time 97.35117770114599
		Delay 0.0
			Membership 1
			Time Window [64, 124]
			Load at node -10
			Service time at node 10
			Location (15, 75)
	Distance between 3.0
			Node 3
		Load 30.0
		Time 110.35117770114599
		Delay 0.0
			Membership 1
			Time Window [80, 140]
			Load at node 20
			Service time at node 10
			Location (18, 75)
	Distance between 5.0
			Node 25
		Load 40.0
		Time 125.35117770114599
		Delay 0.0
			Membership 1
			Time Window [98, 158]
			Load at node 10
			Service time at node 10
			Location (18, 80)
	Distance between 2.0
			Node 77
		Load 30.0
		Time 137.35117770114599
		Delay 0.0
			Membership 1
			Time Window [126, 186]
			Load at node -10
			Service time at node 10
			Location (20, 80)
	Distance between 5.385164807134504
			Node 78
		Load 20.0
		Time 152.7363425082805
		Delay 0.0
			Membership 1
			Time Window [94, 154]
			Load at node -10
			Service time at node 10
			Location (22, 85)
	Distance between 3.0
			Node 1
		Load 40.0
		Time 165.7363425082805
		Delay 0.0
			Membership 1
			Time Window [130, 190]
			Load at node 20
			Service time at node 0
			Location (25, 85)
	Distance between 0.0
			Node 54
		Load 20.0
		Time 165.7363425082805
		Delay 0.0
			Membership 1
			Time Window [130, 190]
			Load at node -20
			Service time at node 10
			Location (25, 85)
	Distance between 18.973665961010276
			Node 56
		Load 0.0
		Time 194.71000846929078
		Delay 0.0
			Membership 1
			Time Window [150, 210]
			Load at node -20
			Service time at node 10
			Location (31, 67)
	Distance between 19.235384061671343
			Node 107
		Load 0.0
		Time 223.94539253096212
		Delay 0.0
			Membership 1
			Time Window [0, 240]
			Load at node 0
			Service time at node 0
			Location (40, 50)

Vehicle 7 with capacity 200
			Node 0
		Load 0.0
		Time 0.0
		Delay 0.0
			Membership 1
			Time Window [0, 240]
			Load at node 0
			Service time at node 0
			Location (40, 50)
	Distance between 39.293765408777
			Node 9
		Load 20.0
		Time 43.0
		Delay 0.0
			Membership 1
			Time Window [43, 103]
			Load at node 20
			Service time at node 10
			Location (2, 40)
	Distance between 2.0
			Node 62
		Load 0.0
		Time 57.0
		Delay 0.0
			Membership 1
			Time Window [57, 117]
			Load at node -20
			Service time at node 10
			Location (0, 40)
	Distance between 5.385164807134504
			Node 26
		Load 10.0
		Time 72.3851648071345
		Delay 0.0
			Membership 1
			Time Window [38, 98]
			Load at node 10
			Service time at node 10
			Location (2, 45)
	Distance between 12.529964086141668
			Node 79
		Load 0.0
		Time 94.91512889327618
		Delay 0.0
			Membership 1
			Time Window [75, 135]
			Load at node -10
			Service time at node 10
			Location (8, 56)
	Distance between 7.211102550927978
			Node 41
		Load 5.0
		Time 112.12623144420415
		Delay 0.0
			Membership 1
			Time Window [62, 122]
			Load at node 5
			Service time at node 10
			Location (2, 60)
	Distance between 8.94427190999916
			Node 94
		Load 0.0
		Time 131.0705033542033
		Delay 0.0
			Membership 1
			Time Window [74, 134]
			Load at node -5
			Service time at node 10
			Location (6, 68)
	Distance between 12.041594578792296
			Node 33
		Load 17.0
		Time 153.1120979329956
		Delay 0.0
			Membership 1
			Time Window [140, 200]
			Load at node 17
			Service time at node 10
			Location (15, 60)
	Distance between 15.0
			Node 30
		Load 33.0
		Time 178.1120979329956
		Delay 0.0
			Membership 1
			Time Window [125, 185]
			Load at node 16
			Service time at node 0
			Location (30, 60)
	Distance between 0.0
			Node 83
		Load 17.0
		Time 178.1120979329956
		Delay 0.0
			Membership 1
			Time Window [125, 185]
			Load at node -16
			Service time at node 10
			Location (30, 60)
	Distance between 10.295630140987
			Node 86
		Load 0.0
		Time 198.40772807398258
		Delay 0.0
			Membership 1
			Time Window [150, 210]
			Load at node -17
			Service time at node 10
			Location (35, 69)
	Distance between 19.6468827043885
			Node 107
		Load 0.0
		Time 228.05461077837109
		Delay 0.0
			Membership 1
			Time Window [0, 240]
			Load at node 0
			Service time at node 0
			Location (40, 50)

Vehicle 8 with capacity 200
			Node 0
		Load 0.0
		Time 0.0
		Delay 0.0
			Membership 1
			Time Window [0, 240]
			Load at node 0
			Service time at node 0
			Location (40, 50)
	Distance between 51.478150704935004
			Node 17
		Load 10.0
		Time 51.478150704935004
		Delay 0.0
			Membership 1
			Time Window [51, 111]
			Load at node 10
			Service time at node 10
			Location (85, 25)
	Distance between 10.44030650891055
			Node 16
		Load 30.0
		Time 71.91845721384556
		Delay 0.0
			Membership 1
			Time Window [50, 110]
			Load at node 20
			Service time at node 10
			Location (88, 35)
	Distance between 2.0
			Node 69
		Load 10.0
		Time 83.91845721384556
		Delay 0.0
			Membership 1
			Time Window [52, 112]
			Load at node -20
			Service time at node 10
			Location (90, 35)
	Distance between 5.0
			Node 14
		Load 30.0
		Time 98.91845721384556
		Delay 0.0
			Membership 1
			Time Window [57, 117]
			Load at node 20
			Service time at node 10
			Location (95, 35)
	Distance between 5.830951894845301
			Node 67
		Load 10.0
		Time 114.74940910869086
		Delay 0.0
			Membership 1
			Time Window [55, 115]
			Load at node -20
			Service time at node 10
			Location (92, 30)
	Distance between 3.0
			Node 13
		Load 40.0
		Time 127.74940910869086
		Delay 0.0
			Membership 1
			Time Window [100, 160]
			Load at node 30
			Service time at node 0
			Location (95, 30)
	Distance between 0.0
			Node 66
		Load 10.0
		Time 127.74940910869086
		Delay 0.0
			Membership 1
			Time Window [100, 160]
			Load at node -30
			Service time at node 10
			Location (95, 30)
	Distance between 37.53664875824692
			Node 70
		Load 0.0
		Time 175.28605786693777
		Delay 0.0
			Membership 1
			Time Window [117, 177]
			Load at node -10
			Service time at node 10
			Location (67, 5)
	Distance between 52.478567053607705
			Node 107
		Load 0.0
		Time 237.7646249205455
		Delay 0.0
			Membership 1
			Time Window [0, 240]
			Load at node 0
			Service time at node 0
			Location (40, 50)

Vehicle 9 with capacity 200
			Node 0
		Load 0.0
		Time 0.0
		Delay 0.0
			Membership 1
			Time Window [0, 240]
			Load at node 0
			Service time at node 0
			Location (40, 50)
	Distance between 11.180339887498949
			Node 37
		Load 16.0
		Time 11.180339887498949
		Delay 0.0
			Membership 1
			Time Window [11, 71]
			Load at node 16
			Service time at node 10
			Location (35, 40)
	Distance between 9.219544457292887
			Node 45
		Load 30.0
		Time 30.399884344791836
		Delay 0.0
			Membership 1
			Time Window [20, 80]
			Load at node 14
			Service time at node 10
			Location (37, 31)
	Distance between 8.06225774829855
			Node 36
		Load 47.0
		Time 48.462142093090385
		Delay 0.0
			Membership 1
			Time Window [38, 98]
			Load at node 17
			Service time at node 10
			Location (45, 30)
	Distance between 20.223748416156685
			Node 89
		Load 30.0
		Time 78.68589050924707
		Delay 0.0
			Membership 1
			Time Window [57, 117]
			Load at node -17
			Service time at node 10
			Location (42, 10)
	Distance between 6.4031242374328485
			Node 90
		Load 14.0
		Time 95.08901474667992
		Delay 0.0
			Membership 1
			Time Window [50, 110]
			Load at node -16
			Service time at node 10
			Location (38, 5)
	Distance between 2.0
			Node 98
		Load 0.0
		Time 107.08901474667992
		Delay 0.0
			Membership 1
			Time Window [52, 112]
			Load at node -14
			Service time at node 10
			Location (40, 5)
	Distance between 4.0
			Node 10
		Load 20.0
		Time 121.08901474667992
		Delay 0.0
			Membership 1
			Time Window [72, 132]
			Load at node 20
			Service time at node 10
			Location (44, 5)
	Distance between 2.0
			Node 63
		Load 0.0
		Time 133.08901474667994
		Delay 0.0
			Membership 1
			Time Window [124, 184]
			Load at node -20
			Service time at node 10
			Location (42, 5)
	Distance between 7.0
			Node 12
		Load 20.0
		Time 150.08901474667994
		Delay 0.0
			Membership 1
			Time Window [124, 184]
			Load at node 20
			Service time at node 10
			Location (35, 5)
	Distance between 12.165525060596439
			Node 65
		Load 0.0
		Time 172.2545398072764
		Delay 0.0
			Membership 1
			Time Window [120, 180]
			Load at node -20
			Service time at node 10
			Location (23, 3)
	Distance between 49.9799959983992
			Node 107
		Load 0.0
		Time 232.2345358056756
		Delay 0.0
			Membership 1
			Time Window [0, 240]
			Load at node 0
			Service time at node 0
			Location (40, 50)

Vehicle 10 with capacity 200
			Node 0
		Load 0.0
		Time 0.0
		Delay 0.0
			Membership 1
			Time Window [0, 240]
			Load at node 0
			Service time at node 0
			Location (40, 50)
	Distance between 14.7648230602334
			Node 44
		Load 9.0
		Time 27.0
		Delay 0.0
			Membership 1
			Time Window [27, 87]
			Load at node 9
			Service time at node 10
			Location (27, 43)
	Distance between 13.152946437965905
			Node 97
		Load 0.0
		Time 50.15294643796591
		Delay 0.0
			Membership 1
			Time Window [37, 97]
			Load at node -9
			Service time at node 10
			Location (25, 30)
	Distance between 5.0990195135927845
			Node 53
		Load 15.0
		Time 65.25196595155869
		Delay 0.0
			Membership 1
			Time Window [62, 122]
			Load at node 15
			Service time at node 10
			Location (26, 35)
	Distance between 12.083045973594572
			Node 47
		Load 43.0
		Time 87.33501192515325
		Delay 0.0
			Membership 1
			Time Window [72, 132]
			Load at node 28
			Service time at node 10
			Location (21, 24)
	Distance between 9.055385138137417
			Node 31
		Load 66.0
		Time 106.39039706329066
		Delay 0.0
			Membership 1
			Time Window [81, 141]
			Load at node 23
			Service time at node 10
			Location (30, 25)
	Distance between 14.142135623730951
			Node 84
		Load 43.0
		Time 130.53253268702161
		Delay 0.0
			Membership 1
			Time Window [77, 137]
			Load at node -23
			Service time at node 10
			Location (40, 15)
	Distance between 3.605551275463989
			Node 106
		Load 28.0
		Time 144.1380839624856
		Delay 0.0
			Membership 1
			Time Window [89, 149]
			Load at node -15
			Service time at node 10
			Location (42, 12)
	Distance between 3.0
			Node 100
		Load 0.0
		Time 157.1380839624856
		Delay 0.0
			Membership 1
			Time Window [107, 167]
			Load at node -28
			Service time at node 10
			Location (42, 15)
	Distance between 4.0
			Node 11
		Load 10.0
		Time 171.1380839624856
		Delay 0.0
			Membership 1
			Time Window [133, 193]
			Load at node 10
			Service time at node 10
			Location (38, 15)
	Distance between 29.154759474226502
			Node 64
		Load 0.0
		Time 210.2928434367121
		Delay 0.0
			Membership 1
			Time Window [152, 212]
			Load at node -10
			Service time at node 10
			Location (49, 42)
	Distance between 12.041594578792296
			Node 107
		Load 0.0
		Time 232.3344380155044
		Delay 0.0
			Membership 1
			Time Window [0, 240]
			Load at node 0
			Service time at node 0
			Location (40, 50)

Vehicle 14 with capacity 200
			Node 0
		Load 0.0
		Time 0.0
		Delay 0.0
			Membership 1
			Time Window [0, 240]
			Load at node 0
			Service time at node 0
			Location (40, 50)
	Distance between 27.459060435491963
			Node 40
		Load 8.0
		Time 27.459060435491963
		Delay 0.0
			Membership 1
			Time Window [27, 87]
			Load at node 8
			Service time at node 10
			Location (63, 65)
	Distance between 10.198039027185569
			Node 93
		Load 0.0
		Time 50.0
		Delay 0.0
			Membership 1
			Time Window [50, 110]
			Load at node -8
			Service time at node 10
			Location (65, 55)
	Distance between 13.038404810405298
			Node 38
		Load 9.0
		Time 73.0384048104053
		Delay 0.0
			Membership 1
			Time Window [55, 115]
			Load at node 9
			Service time at node 10
			Location (64, 42)
	Distance between 26.832815729997478
			Node 15
		Load 19.0
		Time 109.87122054040277
		Delay 0.0
			Membership 1
			Time Window [59, 119]
			Load at node 10
			Service time at node 10
			Location (88, 30)
	Distance between 1.0
			Node 91
		Load 10.0
		Time 120.87122054040277
		Delay 0.0
			Membership 1
			Time Window [116, 176]
			Load at node -9
			Service time at node 10
			Location (87, 30)
	Distance between 5.385164807134504
			Node 18
		Load 40.0
		Time 136.25638534753728
		Delay 0.0
			Membership 1
			Time Window [96, 156]
			Load at node 30
			Service time at node 10
			Location (85, 35)
	Distance between 13.0
			Node 71
		Load 10.0
		Time 159.25638534753728
		Delay 0.0
			Membership 1
			Time Window [101, 161]
			Load at node -30
			Service time at node 10
			Location (72, 35)
	Distance between 20.248456731316587
			Node 68
		Load 0.0
		Time 189.50484207885387
		Delay 0.0
			Membership 1
			Time Window [148, 208]
			Load at node -10
			Service time at node 10
			Location (61, 52)
	Distance between 14.866068747318506
			Node 43
		Load 13.0
		Time 214.37091082617238
		Delay 0.0
			Membership 1
			Time Window [162, 222]
			Load at node 13
			Service time at node 0
			Location (47, 47)
	Distance between 0.0
			Node 96
		Load 0.0
		Time 214.37091082617238
		Delay 0.0
			Membership 1
			Time Window [162, 222]
			Load at node -13
			Service time at node 10
			Location (47, 47)
	Distance between 7.615773105863909
			Node 107
		Load 0.0
		Time 231.98668393203627
		Delay 0.0
			Membership 1
			Time Window [0, 240]
			Load at node 0
			Service time at node 0
			Location (40, 50)

